198 17848
1 2 7 6 3 4 5 8 9 10 11 12 13 41 40 15 14 29 30 33 34 39 47 51 64 105 114 113 116 117 123 138 131 128 171 190 191 192 193 186 187 185 188 189 182 183 181 177 176 175 178 180 184 179 194 195 196 197 198 174 173 168 167 108 109 110 111 107 63 49 48 25 21 24 26 27 35 50 106 112 118 119 120 124 169 125 126 170 127 129 130 133 132 134 135 136 141 140 142 147 143 149 146 145 144 137 172 166 165 164 163 151 150 148 153 162 152 161 160 159 158 157 156 154 155 139 121 122 115 104 103 102 101 95 96 90 89 97 98 99 100 86 85 71 69 58 57 42 43 56 55 54 45 61 62 53 46 52 65 81 94 93 91 92 79 80 78 77 76 75 82 83 88 74 66 70 68 72 87 84 73 67 59 60 44 38 37 31 32 36 28 23 22 20 19 18 17 16 
